FourierSAT_Github_AIJ/benchmarks/MAXSAT_benchmarks/1/dimacs-mod/p_hat500-1.clq.cnf
c File  p_hat500-1.clq
c
c Source: P. Soriano and M. Gendreau at  patrick@crt.umontreal.ca
c
c Reference: p-hat graphs are generated with the p-hat generator
c 	      which is a generalization of the classical uniform
c 	      random graph generator.
c 	      Graphs generated with p-hat have wider node degree spread
c 	      and larger cliques than uniform graphs.
c
c NOTE: September 23, 1993 Corrected corrupted file at DIMACS.
c
c
c Generation parameters: 
c 	n =    500 a =  0.00  b =  0.50  Expected density =  0.25
c	Seed =      12513       Real density =  0.253
c
p cnf 42 474
1 5 0
-1 -5 0
1 6 0
-1 -6 0
1 8 0
-1 -8 0
1 12 0
-1 -12 0
1 14 0
-1 -14 0
1 17 0
-1 -17 0
1 18 0
-1 -18 0
1 20 0
-1 -20 0
1 24 0
-1 -24 0
1 32 0
-1 -32 0
1 34 0
-1 -34 0
1 37 0
-1 -37 0
1 38 0
-1 -38 0
1 39 0
-1 -39 0
1 41 0
-1 -41 0
2 5 0
-2 -5 0
2 8 0
-2 -8 0
2 12 0
-2 -12 0
2 22 0
-2 -22 0
2 24 0
-2 -24 0
2 27 0
-2 -27 0
2 28 0
-2 -28 0
2 31 0
-2 -31 0
2 34 0
-2 -34 0
2 38 0
-2 -38 0
3 8 0
-3 -8 0
3 9 0
-3 -9 0
3 15 0
-3 -15 0
3 17 0
-3 -17 0
3 30 0
-3 -30 0
3 40 0
-3 -40 0
3 41 0
-3 -41 0
4 6 0
-4 -6 0
4 7 0
-4 -7 0
4 8 0
-4 -8 0
4 11 0
-4 -11 0
4 13 0
-4 -13 0
4 16 0
-4 -16 0
4 17 0
-4 -17 0
4 22 0
-4 -22 0
4 23 0
-4 -23 0
4 25 0
-4 -25 0
4 29 0
-4 -29 0
4 30 0
-4 -30 0
4 34 0
-4 -34 0
4 36 0
-4 -36 0
4 39 0
-4 -39 0
4 40 0
-4 -40 0
4 42 0
-4 -42 0
5 6 0
-5 -6 0
5 13 0
-5 -13 0
5 19 0
-5 -19 0
5 20 0
-5 -20 0
5 34 0
-5 -34 0
5 38 0
-5 -38 0
5 41 0
-5 -41 0
6 7 0
-6 -7 0
6 12 0
-6 -12 0
6 13 0
-6 -13 0
6 16 0
-6 -16 0
6 26 0
-6 -26 0
6 30 0
-6 -30 0
6 32 0
-6 -32 0
6 34 0
-6 -34 0
6 37 0
-6 -37 0
6 38 0
-6 -38 0
7 17 0
-7 -17 0
7 18 0
-7 -18 0
7 20 0
-7 -20 0
7 23 0
-7 -23 0
7 30 0
-7 -30 0
7 34 0
-7 -34 0
8 11 0
-8 -11 0
8 16 0
-8 -16 0
8 18 0
-8 -18 0
8 22 0
-8 -22 0
8 24 0
-8 -24 0
8 26 0
-8 -26 0
8 28 0
-8 -28 0
8 31 0
-8 -31 0
8 32 0
-8 -32 0
8 34 0
-8 -34 0
8 36 0
-8 -36 0
8 39 0
-8 -39 0
8 40 0
-8 -40 0
9 23 0
-9 -23 0
9 25 0
-9 -25 0
9 26 0
-9 -26 0
9 32 0
-9 -32 0
9 34 0
-9 -34 0
9 37 0
-9 -37 0
9 40 0
-9 -40 0
9 41 0
-9 -41 0
10 12 0
-10 -12 0
10 24 0
-10 -24 0
10 25 0
-10 -25 0
10 27 0
-10 -27 0
10 31 0
-10 -31 0
10 34 0
-10 -34 0
10 37 0
-10 -37 0
10 38 0
-10 -38 0
10 41 0
-10 -41 0
10 42 0
-10 -42 0
11 12 0
-11 -12 0
11 13 0
-11 -13 0
11 16 0
-11 -16 0
11 19 0
-11 -19 0
11 24 0
-11 -24 0
11 28 0
-11 -28 0
11 29 0
-11 -29 0
11 40 0
-11 -40 0
11 41 0
-11 -41 0
11 42 0
-11 -42 0
12 16 0
-12 -16 0
12 25 0
-12 -25 0
12 30 0
-12 -30 0
12 35 0
-12 -35 0
12 36 0
-12 -36 0
12 40 0
-12 -40 0
12 41 0
-12 -41 0
13 14 0
-13 -14 0
13 16 0
-13 -16 0
13 18 0
-13 -18 0
13 28 0
-13 -28 0
13 30 0
-13 -30 0
13 39 0
-13 -39 0
14 24 0
-14 -24 0
14 37 0
-14 -37 0
15 16 0
-15 -16 0
15 22 0
-15 -22 0
15 25 0
-15 -25 0
15 26 0
-15 -26 0
15 29 0
-15 -29 0
15 30 0
-15 -30 0
15 32 0
-15 -32 0
15 33 0
-15 -33 0
15 34 0
-15 -34 0
15 35 0
-15 -35 0
15 37 0
-15 -37 0
15 40 0
-15 -40 0
15 41 0
-15 -41 0
16 17 0
-16 -17 0
16 24 0
-16 -24 0
16 25 0
-16 -25 0
16 27 0
-16 -27 0
16 28 0
-16 -28 0
16 34 0
-16 -34 0
16 38 0
-16 -38 0
16 39 0
-16 -39 0
16 41 0
-16 -41 0
17 23 0
-17 -23 0
17 24 0
-17 -24 0
17 29 0
-17 -29 0
17 30 0
-17 -30 0
17 35 0
-17 -35 0
17 37 0
-17 -37 0
17 38 0
-17 -38 0
17 39 0
-17 -39 0
18 20 0
-18 -20 0
18 22 0
-18 -22 0
18 23 0
-18 -23 0
18 33 0
-18 -33 0
18 38 0
-18 -38 0
19 20 0
-19 -20 0
19 24 0
-19 -24 0
19 29 0
-19 -29 0
19 31 0
-19 -31 0
19 33 0
-19 -33 0
19 35 0
-19 -35 0
19 36 0
-19 -36 0
19 40 0
-19 -40 0
20 22 0
-20 -22 0
20 31 0
-20 -31 0
20 34 0
-20 -34 0
20 37 0
-20 -37 0
20 38 0
-20 -38 0
20 41 0
-20 -41 0
21 22 0
-21 -22 0
21 25 0
-21 -25 0
21 30 0
-21 -30 0
21 39 0
-21 -39 0
21 42 0
-21 -42 0
22 25 0
-22 -25 0
22 27 0
-22 -27 0
22 33 0
-22 -33 0
22 35 0
-22 -35 0
22 40 0
-22 -40 0
23 26 0
-23 -26 0
23 38 0
-23 -38 0
23 41 0
-23 -41 0
24 26 0
-24 -26 0
24 30 0
-24 -30 0
24 31 0
-24 -31 0
24 34 0
-24 -34 0
24 36 0
-24 -36 0
24 40 0
-24 -40 0
24 41 0
-24 -41 0
25 27 0
-25 -27 0
25 28 0
-25 -28 0
25 33 0
-25 -33 0
25 34 0
-25 -34 0
26 38 0
-26 -38 0
26 41 0
-26 -41 0
27 28 0
-27 -28 0
27 32 0
-27 -32 0
28 33 0
-28 -33 0
28 34 0
-28 -34 0
28 37 0
-28 -37 0
28 38 0
-28 -38 0
28 41 0
-28 -41 0
28 42 0
-28 -42 0
29 32 0
-29 -32 0
29 41 0
-29 -41 0
29 42 0
-29 -42 0
30 31 0
-30 -31 0
30 32 0
-30 -32 0
30 36 0
-30 -36 0
30 38 0
-30 -38 0
30 39 0
-30 -39 0
30 40 0
-30 -40 0
30 41 0
-30 -41 0
30 42 0
-30 -42 0
31 37 0
-31 -37 0
32 38 0
-32 -38 0
32 40 0
-32 -40 0
33 34 0
-33 -34 0
33 37 0
-33 -37 0
33 38 0
-33 -38 0
33 40 0
-33 -40 0
33 41 0
-33 -41 0
34 36 0
-34 -36 0
34 37 0
-34 -37 0
35 40 0
-35 -40 0
36 39 0
-36 -39 0
36 40 0
-36 -40 0
37 38 0
-37 -38 0
40 41 0
-40 -41 0
