FourierSAT_Github_AIJ/res/fs_1core/p_hat500-1.clq.cnf.txt
o 81
o 80
o 78
